certificates/rado_a9_c247_N30.cnf
c Rad2 upper bound instance: x1 + 9*x2 - x3 = 247, interval [1,30]
p cnf 30 198
1 6 28 0
-1 -6 -28 0
1 15 29 0
-1 -15 -29 0
1 24 30 0
-1 -24 -30 0
2 7 28 0
-2 -7 -28 0
2 16 29 0
-2 -16 -29 0
2 25 30 0
-2 -25 -30 0
3 8 28 0
-3 -8 -28 0
3 17 29 0
-3 -17 -29 0
3 26 30 0
-3 -26 -30 0
4 9 28 0
-4 -9 -28 0
4 18 29 0
-4 -18 -29 0
4 27 30 0
-4 -27 -30 0
1 5 27 0
-1 -5 -27 0
5 10 28 0
-5 -10 -28 0
5 19 29 0
-5 -19 -29 0
5 28 30 0
-5 -28 -30 0
2 6 27 0
-2 -6 -27 0
6 11 28 0
-6 -11 -28 0
6 20 29 0
-6 -20 -29 0
6 29 30 0
-6 -29 -30 0
3 7 27 0
-3 -7 -27 0
7 12 28 0
-7 -12 -28 0
7 21 29 0
-7 -21 -29 0
7 30 0
-7 -30 0
4 8 27 0
-4 -8 -27 0
8 13 28 0
-8 -13 -28 0
8 22 29 0
-8 -22 -29 0
5 9 27 0
-5 -9 -27 0
9 14 28 0
-9 -14 -28 0
9 23 29 0
-9 -23 -29 0
6 10 27 0
-6 -10 -27 0
10 15 28 0
-10 -15 -28 0
10 24 29 0
-10 -24 -29 0
7 11 27 0
-7 -11 -27 0
11 16 28 0
-11 -16 -28 0
11 25 29 0
-11 -25 -29 0
8 12 27 0
-8 -12 -27 0
12 17 28 0
-12 -17 -28 0
12 26 29 0
-12 -26 -29 0
9 13 27 0
-9 -13 -27 0
13 18 28 0
-13 -18 -28 0
13 27 29 0
-13 -27 -29 0
1 14 26 0
-1 -14 -26 0
10 14 27 0
-10 -14 -27 0
14 19 28 0
-14 -19 -28 0
14 28 29 0
-14 -28 -29 0
2 15 26 0
-2 -15 -26 0
11 15 27 0
-11 -15 -27 0
15 20 28 0
-15 -20 -28 0
15 29 0
-15 -29 0
3 16 26 0
-3 -16 -26 0
12 16 27 0
-12 -16 -27 0
16 21 28 0
-16 -21 -28 0
16 29 30 0
-16 -29 -30 0
4 17 26 0
-4 -17 -26 0
13 17 27 0
-13 -17 -27 0
17 22 28 0
-17 -22 -28 0
5 18 26 0
-5 -18 -26 0
14 18 27 0
-14 -18 -27 0
18 23 28 0
-18 -23 -28 0
6 19 26 0
-6 -19 -26 0
15 19 27 0
-15 -19 -27 0
19 24 28 0
-19 -24 -28 0
7 20 26 0
-7 -20 -26 0
16 20 27 0
-16 -20 -27 0
20 25 28 0
-20 -25 -28 0
8 21 26 0
-8 -21 -26 0
17 21 27 0
-17 -21 -27 0
21 26 28 0
-21 -26 -28 0
9 22 26 0
-9 -22 -26 0
18 22 27 0
-18 -22 -27 0
22 27 28 0
-22 -27 -28 0
1 23 25 0
-1 -23 -25 0
10 23 26 0
-10 -23 -26 0
19 23 27 0
-19 -23 -27 0
23 28 0
-23 -28 0
2 24 25 0
-2 -24 -25 0
11 24 26 0
-11 -24 -26 0
20 24 27 0
-20 -24 -27 0
24 28 29 0
-24 -28 -29 0
3 25 0
-3 -25 0
12 25 26 0
-12 -25 -26 0
21 25 27 0
-21 -25 -27 0
25 28 30 0
-25 -28 -30 0
4 25 26 0
-4 -25 -26 0
13 26 0
-13 -26 0
22 26 27 0
-22 -26 -27 0
5 25 27 0
-5 -25 -27 0
14 26 27 0
-14 -26 -27 0
23 27 0
-23 -27 0
6 25 28 0
-6 -25 -28 0
15 26 28 0
-15 -26 -28 0
24 27 28 0
-24 -27 -28 0
7 25 29 0
-7 -25 -29 0
16 26 29 0
-16 -26 -29 0
25 27 29 0
-25 -27 -29 0
8 25 30 0
-8 -25 -30 0
17 26 30 0
-17 -26 -30 0
26 27 30 0
-26 -27 -30 0
