certificates/rado_a9_c247_N30.drat
-28 -30 0
-30 0
7 0
28 0
-23 0
-2 0
-12 0
27 0
25 0
-22 0
-24 0
-3 0
-11 0
-29 0
-6 0
-20 0
-21 0
-5 0
1 0
26 0
17 0
15 0
0
